1
1000
46
150 3
151 3
152 2
153 2
155 3
156 1
157 2
158 1
159 2
160 2
161 3
162 4
163 4
164 1
165 1
166 4
167 1
168 2
169 3
170 5
171 6
172 1
173 1
174 4
177 1
178 2
179 4
180 3
181 1
183 4
184 2
185 2
186 3
187 2
188 3
189 5
190 4
191 4
192 1
194 3
195 2
196 5
197 3
198 3
199 1
200 1
